1,32517,43900,49903,31089,49467,39919,40185,22819,9976,9511,11130,31678,8379,2426,28847,9928,28335,34027,19177,11062,14207,30068,28429,863,1787,22349,37811,38281,46423,753,20257,45324,41479,47423,48356,30023,12596,3351,30840,2240,41067,45066,6744,18949,36496,25365,35713,42182,42742,19339,9874,3809,42705,47345,49299,37238,25143,47763,18430,8793,11278,49502,17481,15796,42853,11368,35997,11185,47757,26852,45870,6288,11170,27824,31717,50304,5837,47559,39654,22149,
2,753,863,753,863,1787,753,2240,2426,8153,2007,1449,603,2469,3175,9584,986,1676,3461,2804,4211,3038,377,2933,797,3038,23778,2194,1666,5348,2925,3052,1426,1847,1777,2426,378,2840,6836,2012,2752,1819,1426,3479,2090,5112,2157,2344,1769,5388,4812,1573,2261,6433,191,4228,3807,1368,2223,1270,671,2262,1963,5710,869,12057,2012,251,1439,3650,3752,301,9446,60858,30467,13155,7994,1087,3599,7074,1051,
3,191,191,251,301,191,251,377,251,727,577,876,986,976,3580,1091,745,1137,663,377,797,320,758,2693,2424,1390,5454,577,753,603,690,753,320,690,1547,4970,330,753,1394,2492,1077,876,378,301,690,1077,1561,1439,863,1526,1158,2310,2352,986,1091,377,1891,926,4483,3954,381,929,926,577,377,2169,2594,1433,758,1218,1389,625,652,3677,2059,10903,13957,320,9937,251,11251,
4,191,191,251,251,191,251,301,251,1331,1047,320,753,690,251,2540,378,753,758,876,625,320,753,377,986,320,191,251,320,1610,753,320,481,320,1439,191,777,876,377,320,320,320,1155,3002,377,624,1185,590,2358,191,822,377,320,320,686,745,191,251,320,251,1385,2527,501,191,3257,301,191,1091,377,1731,377,191,320,753,6678,2020,46723,27869,11550,40541,22743,
5,191,191,191,191,191,191,191,191,251,251,10755,191,191,430,251,191,251,39147,191,3155,191,378,191,191,251,690,251,191,320,8772,320,320,251,251,320,320,191,2548,320,320,191,3671,1644,320,1431,3671,251,191,191,191,191,191,191,320,320,3671,1743,251,430,641,191,191,9897,377,320,191,320,18701,191,191,320,3167,16648,191,191,909,38261,251,5453,251,
6,191,191,191,191,191,191,191,191,191,17431,191,320,191,191,191,191,320,191,191,191,251,191,191,191,191,191,320,191,251,191,191,251,3671,251,191,191,191,3357,191,191,191,191,191,191,191,191,191,191,191,320,191,191,251,191,191,251,8213,251,251,320,191,191,320,191,191,191,251,191,251,191,191,191,191,32842,43942,14642,33580,52105,191,59390,
7,191,191,191,191,191,191,191,191,251,20606,191,191,191,191,191,251,19165,191,191,191,191,191,191,191,191,191,191,191,191,191,191,251,191,191,251,191,191,191,191,191,191,191,191,191,191,191,191,191,251,191,191,191,191,191,191,251,191,191,989,191,191,191,191,191,191,191,191,191,191,15453,191,191,9269,16054,31352,34548,191,41253,57238,27225,
8,191,191,191,191,191,191,191,191,191,191,191,191,191,191,191,191,191,191,191,191,191,191,191,191,191,191,191,191,191,191,191,191,191,191,191,191,191,191,191,191,191,191,191,191,191,191,191,191,191,191,191,191,191,191,191,191,191,191,191,191,191,191,191,191,191,191,191,191,191,191,191,191,24665,52362,191,191,191,191,10451,13500,
9,191,191,191,191,191,191,191,191,191,191,191,191,191,191,191,191,191,191,191,191,191,191,191,191,191,191,191,191,191,191,191,191,191,191,191,191,191,191,191,191,191,191,191,191,191,191,191,191,191,191,191,191,1385,191,191,191,191,191,191,191,191,191,191,191,191,191,191,191,2000,191,191,191,41154,191,39629,19730,36316,30109,44657,37114,
10,191,191,191,191,191,191,191,191,191,191,191,191,191,191,191,191,191,191,191,191,191,191,191,191,191,191,191,191,191,191,191,191,191,191,191,191,191,191,191,191,191,191,191,191,191,191,191,191,7229,191,191,191,191,191,191,191,37317,191,191,191,191,191,191,191,191,7229,191,191,191,191,191,191,39758,191,191,48759,55823,40139,31084,191,
11,191,191,191,191,191,191,191,191,191,191,191,191,191,191,191,191,191,191,191,191,191,191,191,191,191,191,191,191,191,191,191,191,191,191,191,191,191,191,191,191,191,191,191,191,191,191,191,191,191,191,191,191,191,191,191,191,191,191,191,191,191,191,191,191,191,191,191,191,191,191,191,32578,45003,191,191,35400,28085,34586,191,30730,
12,191,191,191,191,191,191,191,191,191,191,191,191,191,191,191,191,191,20851,191,191,191,191,191,191,191,191,191,191,191,191,191,191,191,191,191,191,191,191,191,191,191,191,191,191,191,20851,191,191,191,191,191,191,191,191,191,191,191,191,191,191,191,191,191,191,191,191,191,191,191,191,191,191,18406,191,191,31578,48578,191,40140,46903,
13,191,191,191,191,191,191,191,191,8525,191,191,191,191,191,191,191,191,191,191,191,191,191,191,191,191,191,191,191,191,191,191,4060,191,191,191,191,191,191,191,191,191,191,191,191,191,191,191,191,191,191,191,191,191,191,191,191,191,191,191,191,191,191,191,191,191,191,191,191,191,191,191,191,10361,14050,60348,50900,28192,55957,191,44655,
14,191,191,191,191,191,191,191,191,191,191,191,191,191,191,19101,191,191,191,191,191,191,191,191,191,191,191,191,191,191,191,191,191,191,191,191,191,191,191,191,191,191,191,191,191,191,191,24695,191,191,191,191,191,191,191,191,191,191,191,191,191,191,191,191,191,191,191,191,191,191,191,191,191,191,2616,191,27315,54928,33999,41651,191,
15,191,191,191,191,191,191,191,191,191,191,191,191,191,191,191,14067,191,191,191,191,191,191,14766,191,191,191,191,191,191,191,191,191,191,6896,191,191,191,191,191,191,191,14766,191,191,191,191,191,191,191,191,191,191,14766,191,191,191,191,191,191,191,191,191,191,191,191,191,191,191,191,14766,191,191,53710,191,3924,22323,12160,191,191,39078,
16,191,191,191,191,191,191,191,191,191,191,191,191,191,191,191,191,191,191,191,191,191,191,191,191,191,191,191,191,191,191,191,191,191,191,191,191,191,191,191,191,191,191,191,191,191,191,191,191,191,191,191,191,191,191,191,191,191,191,191,191,191,191,191,191,191,191,191,191,191,191,191,191,19771,47937,32770,191,7347,191,54843,41296,
17,191,191,191,191,191,191,191,191,191,191,191,14544,191,191,191,191,191,191,191,191,191,191,191,191,191,191,191,191,191,191,191,191,191,191,191,191,191,191,191,191,191,191,191,191,191,191,191,191,8450,191,191,191,191,191,191,191,191,191,191,191,191,191,191,191,191,191,191,191,191,191,191,191,46972,191,57597,191,11883,191,46627,191,
18,191,191,191,191,191,191,191,191,191,191,191,191,191,191,191,191,191,191,191,191,191,191,191,191,191,18096,191,191,191,191,191,191,191,191,191,191,191,191,191,191,191,191,191,191,191,191,191,191,191,191,191,191,191,191,191,9088,191,191,191,191,191,191,191,191,191,191,191,191,191,191,191,191,191,9145,191,5150,2529,34957,19872,43904,
19,191,191,191,191,191,191,191,191,191,191,191,191,191,191,191,191,191,191,191,191,191,191,191,191,191,191,191,191,191,191,191,191,191,191,191,191,191,191,191,191,191,191,191,191,191,191,191,191,191,191,191,191,191,191,191,191,191,191,191,191,191,191,191,191,191,191,191,191,191,191,191,191,6985,44763,39962,49981,42354,191,52919,191,
20,191,191,191,191,191,191,191,191,191,191,1364,191,191,191,191,191,191,191,191,191,191,191,191,191,191,191,191,191,191,191,191,191,191,191,191,191,191,191,18749,191,191,191,191,191,191,191,191,191,11176,191,191,191,191,191,191,191,191,13973,191,191,191,191,191,191,191,191,191,191,191,191,191,191,191,20274,191,30384,11388,191,23432,30261,
21,191,191,191,191,191,191,191,191,191,191,191,191,191,191,191,191,191,191,191,191,191,191,191,191,191,191,191,191,191,191,191,191,191,191,191,191,191,191,191,191,191,191,191,191,191,191,191,191,191,191,191,191,191,191,191,191,191,191,191,191,16816,191,191,191,191,191,191,191,191,191,191,191,191,47199,39833,45544,36442,33224,29482,50421,
22,191,191,191,191,191,191,191,191,191,191,4845,191,191,191,191,4102,191,191,4845,191,191,191,191,191,191,191,191,191,191,191,191,191,191,191,191,191,30378,36442,191,191,191,191,191,191,191,191,191,191,191,191,191,7976,191,191,191,191,191,191,191,191,4845,191,191,191,191,191,4102,191,191,191,191,191,191,191,53268,34221,37600,23106,191,191,
23,191,191,191,191,191,191,191,191,191,191,191,191,191,191,191,191,191,191,191,191,191,191,191,191,191,191,191,191,191,191,191,191,191,191,191,191,191,191,191,191,191,191,191,191,191,191,191,191,191,191,191,191,191,191,191,191,191,191,191,191,191,191,191,191,4845,191,191,191,191,191,191,191,57010,33924,13929,191,6355,191,191,45996,
24,191,191,191,191,191,191,191,191,191,191,191,191,191,191,191,191,191,191,191,191,191,191,191,191,191,191,191,191,191,191,191,191,191,191,191,191,191,191,191,191,191,191,191,191,191,191,191,191,191,191,6158,191,191,191,191,191,191,191,191,191,191,191,191,191,191,191,191,191,191,191,191,191,11931,39952,191,191,33566,15432,46290,5790,
25,191,191,191,191,191,191,191,191,191,191,191,2971,191,191,191,191,191,191,191,191,191,191,191,191,191,191,191,191,191,191,191,191,191,6158,191,191,191,191,191,191,191,191,191,191,191,191,191,191,191,191,191,191,191,191,191,191,191,191,191,191,191,191,191,191,191,191,191,191,191,191,191,191,41219,27163,28558,3309,191,49153,23348,35052,
26,191,191,191,191,191,191,191,191,191,191,191,191,191,191,191,191,191,191,191,191,191,191,191,191,191,191,191,191,191,191,191,191,191,191,191,191,191,191,191,191,191,191,191,191,191,191,191,191,191,191,191,191,191,191,191,191,191,191,191,191,33657,191,191,191,191,191,191,191,191,191,191,191,191,45769,58887,50400,191,191,38319,32518,
27,191,191,191,191,191,191,191,191,191,191,191,191,191,191,191,191,191,191,191,191,191,191,191,191,191,191,191,191,191,191,191,191,191,191,191,191,191,191,191,191,191,191,191,191,191,191,191,191,191,191,191,191,191,191,191,191,191,191,191,191,191,191,191,191,191,191,191,191,191,191,191,191,191,191,27633,191,15691,191,35673,46269,
28,191,191,191,191,191,191,191,191,191,191,191,191,191,191,191,191,191,191,191,191,191,191,191,191,191,191,191,191,191,191,191,191,191,191,191,191,191,191,191,191,191,191,191,191,191,191,191,191,191,191,191,191,191,191,191,191,191,191,191,191,191,191,191,191,191,191,191,191,191,191,191,191,17537,24282,6105,28454,26096,36351,50688,24040,
29,191,191,191,191,191,191,191,191,191,191,191,191,191,191,191,191,191,191,191,191,191,191,191,191,191,191,191,191,191,191,191,191,191,191,191,191,191,191,191,191,191,191,191,191,191,191,191,191,191,191,191,191,191,191,191,191,191,26557,191,191,191,191,191,191,191,191,191,191,191,191,191,191,35148,191,191,50839,41696,58595,12012,33563,
30,191,191,191,191,191,191,191,191,191,191,367,387,191,191,191,191,191,191,191,191,191,191,191,191,191,191,191,191,191,191,191,191,191,191,191,191,191,191,191,191,191,191,191,191,191,191,191,191,191,191,191,191,191,387,387,191,191,191,191,191,191,191,191,191,191,191,191,191,191,191,191,191,191,15818,42393,191,30214,18226,54142,191,
31,191,191,191,191,191,191,191,191,191,191,11917,191,191,191,191,191,29146,191,191,191,191,191,191,191,191,191,191,191,191,191,191,191,191,191,191,191,191,191,191,191,191,191,191,191,191,191,191,191,191,191,191,191,191,191,191,191,191,191,191,191,191,191,191,191,191,191,191,191,191,191,191,191,28430,29265,39318,45094,60534,27724,191,191,
32,191,191,191,191,191,191,191,191,191,191,191,191,191,191,191,191,191,191,191,191,191,191,191,191,191,191,191,191,191,191,191,191,191,191,191,22772,13238,191,191,191,191,191,191,191,191,191,191,191,191,191,191,191,191,191,191,191,191,191,191,191,22772,191,191,191,191,191,191,191,191,191,191,191,33384,52356,40284,191,53591,191,47832,32681,
33,191,191,191,191,191,191,191,191,191,191,191,191,191,191,191,191,191,191,191,191,191,191,191,191,191,191,191,191,191,191,191,191,191,191,191,191,191,191,191,191,191,191,191,191,191,191,191,191,191,191,191,191,191,191,191,191,191,38855,191,191,191,191,191,191,191,191,191,191,191,191,191,191,54237,9320,191,191,28871,45303,18630,11163,
34,191,191,191,191,191,191,191,191,191,191,191,191,191,191,191,191,191,191,191,191,191,191,191,191,191,191,191,191,191,191,191,191,191,10558,191,191,191,191,191,191,191,191,191,191,191,191,191,191,23549,191,191,191,191,191,191,191,191,191,191,191,191,191,191,191,191,23549,191,191,191,191,191,191,16013,5597,8800,55174,7362,4844,191,191,
35,191,191,191,191,191,191,191,191,191,191,191,191,191,191,191,191,191,191,191,191,191,191,191,191,191,191,191,191,5712,191,191,191,191,191,191,191,191,191,191,191,191,191,191,191,191,191,191,191,191,191,191,191,191,191,191,191,191,191,191,191,191,191,191,191,191,191,191,191,191,191,191,191,6722,24372,18095,56720,41066,31007,191,24551,
36,191,191,191,191,191,191,191,191,191,191,191,191,191,191,191,191,191,191,10215,191,191,191,191,191,191,191,191,191,191,191,191,191,191,191,191,191,191,191,191,191,191,191,191,191,191,191,191,191,191,191,191,191,191,191,191,191,191,191,191,191,191,191,191,191,191,191,191,191,191,191,191,191,49037,191,18192,32552,27697,191,191,191,
37,191,191,191,191,191,191,191,191,191,191,191,191,191,191,191,191,191,191,191,191,191,191,191,191,191,191,191,191,191,191,191,191,191,191,191,191,191,191,191,191,191,191,191,191,191,191,191,29249,191,191,191,191,191,191,191,191,191,191,191,52102,191,191,191,191,191,191,191,191,191,191,191,191,38579,191,191,191,22782,14685,191,29016,
38,191,191,191,191,191,191,191,191,191,48395,191,191,191,191,191,191,191,191,191,191,191,191,191,191,191,191,191,191,191,191,191,191,191,191,191,191,191,191,191,191,191,191,191,191,191,191,191,8762,191,191,191,191,191,191,191,191,191,191,191,191,191,191,191,191,191,191,191,191,191,191,191,191,11510,44497,191,42094,20023,42549,23662,191,
39,191,191,191,191,191,191,191,191,191,191,191,191,191,191,191,191,191,191,191,191,191,191,45621,191,191,191,191,191,191,191,191,191,191,191,8644,191,191,191,191,191,191,191,191,191,191,191,191,191,191,191,191,191,191,191,191,191,8644,191,191,191,191,191,191,191,191,191,191,191,191,191,191,191,55660,191,421,29936,191,33214,48856,17588,
40,191,191,191,191,191,191,191,191,191,191,191,191,191,191,191,191,48466,191,191,191,191,191,191,191,191,191,191,191,191,191,5325,191,191,191,191,191,191,191,191,191,191,18374,191,191,191,191,191,18374,191,191,12425,191,191,191,191,191,191,191,5325,191,191,191,191,191,191,191,191,191,191,191,191,191,50203,191,191,191,43777,59513,48191,38104,
41,191,191,191,191,191,191,191,191,191,191,191,191,191,191,191,191,191,191,191,191,191,191,191,191,191,191,191,191,191,191,191,191,191,191,191,191,191,191,191,191,191,191,191,191,191,191,191,191,191,191,191,191,191,191,191,191,191,191,191,191,191,191,191,191,191,191,191,191,191,191,191,191,191,49296,23640,191,10725,31811,191,29162,
42,191,191,191,191,191,191,191,191,191,191,191,191,191,191,191,191,191,191,191,191,191,191,191,191,191,191,191,191,191,191,191,191,191,191,191,191,191,191,191,191,191,191,191,191,191,191,191,191,191,191,191,191,191,191,191,191,191,191,191,191,191,191,191,191,191,191,191,191,191,191,191,191,47391,26928,191,191,37372,55446,23103,35330,
43,191,191,191,191,191,191,191,191,191,191,191,191,191,191,191,191,191,191,191,191,191,191,191,191,191,191,191,191,191,191,191,191,191,191,191,191,191,191,191,191,191,191,191,50140,191,191,191,191,191,191,191,191,191,191,191,191,191,191,191,15882,191,191,191,191,191,191,191,191,191,191,191,191,191,191,191,191,17253,49528,191,45732,
44,191,191,191,191,191,191,191,191,191,191,191,191,191,191,191,191,191,191,191,191,191,191,191,191,191,191,191,191,191,191,191,191,191,191,191,191,191,191,191,191,191,191,191,191,191,191,191,191,15472,191,191,191,191,191,191,191,191,191,191,191,191,191,191,191,191,191,191,191,191,191,191,191,191,54593,191,5654,47285,191,48752,191,
45,191,191,191,191,191,191,191,191,191,191,191,8471,191,191,191,191,191,191,191,191,191,191,191,191,191,191,191,191,191,191,191,191,191,191,191,191,191,191,191,191,191,191,191,191,191,191,191,191,191,191,191,191,191,191,191,191,191,191,191,191,191,191,191,191,191,191,191,191,191,10753,191,191,191,17470,19730,191,38183,191,191,33409,
46,191,191,191,191,191,191,191,191,191,191,191,191,191,191,191,191,191,191,191,191,191,191,191,191,191,191,191,191,191,191,191,191,191,191,191,191,191,191,191,191,191,191,191,191,191,191,191,191,191,191,191,191,191,191,191,191,191,191,191,191,191,191,191,191,191,12982,191,191,191,191,191,191,18948,16093,35858,29990,41291,30655,39412,191,
47,191,191,191,191,191,191,191,191,191,191,191,191,191,191,191,191,191,191,191,191,191,191,191,191,191,191,191,191,191,191,191,191,191,191,191,191,191,191,191,191,191,191,191,191,191,191,191,191,191,191,191,191,191,191,191,191,191,191,191,191,191,191,191,191,191,191,191,191,191,29213,191,191,38070,191,57517,191,191,191,15343,472,
48,191,191,191,191,191,191,191,191,191,191,191,191,15343,191,191,191,191,191,191,191,191,191,191,191,191,191,191,191,191,191,191,191,191,191,191,191,191,191,191,191,191,191,191,191,191,191,25350,191,191,191,191,191,191,191,191,191,191,191,191,191,191,191,191,191,191,191,191,191,191,191,191,191,49555,26686,191,26836,191,191,5600,5970,
49,191,191,191,191,191,191,191,191,191,191,191,191,191,191,191,191,191,191,191,191,191,191,191,191,191,191,191,191,191,191,191,191,191,191,191,191,191,191,191,191,191,191,191,191,191,191,191,191,191,191,191,191,191,191,191,191,191,191,191,191,191,191,191,191,191,191,191,191,191,191,191,191,20459,13794,39617,191,40487,39908,44238,57938,
50,191,191,191,191,191,191,191,191,191,191,191,191,191,191,191,191,191,191,191,191,191,191,191,191,191,191,191,191,10751,191,191,191,191,191,191,191,191,191,12640,191,191,191,191,1901,191,191,191,191,191,191,191,191,191,191,191,191,18941,191,191,191,191,191,191,191,191,191,191,191,191,191,191,191,39492,7076,191,48446,191,59824,46628,191,
51,191,191,191,191,191,191,191,191,191,191,191,191,191,27223,191,191,191,191,191,191,191,191,191,191,191,191,191,191,27223,191,191,191,191,191,191,191,191,191,191,191,191,191,191,191,191,191,27223,191,191,191,191,191,191,191,191,191,191,29940,191,191,27223,191,191,191,191,191,191,191,191,191,191,191,191,18635,35835,31025,25744,16849,39236,26913,
52,191,191,191,191,191,191,191,191,191,191,191,191,191,191,191,191,191,191,191,191,191,191,191,191,191,191,191,191,191,191,191,191,191,191,191,191,191,191,191,191,191,191,191,191,191,191,191,191,191,191,191,191,191,191,191,191,191,191,191,191,191,191,191,191,191,191,191,191,191,191,191,191,191,191,10940,4653,46091,34685,10306,27144,
53,191,191,191,191,191,191,191,191,191,191,191,191,191,191,191,191,191,191,191,191,191,191,191,191,191,191,191,191,191,191,191,191,191,191,191,191,191,191,191,191,191,191,191,191,191,191,191,191,191,191,13586,191,191,191,191,191,191,191,191,191,191,191,191,191,191,191,191,191,191,15842,191,13586,19874,191,31291,38139,191,17431,28760,10485,
54,191,191,191,191,191,191,191,191,191,191,191,191,191,191,191,191,191,191,191,191,191,191,191,191,13866,191,36552,191,191,191,191,191,191,191,191,191,191,191,191,191,191,191,191,191,191,191,191,191,191,191,191,191,191,191,191,191,191,191,191,191,191,191,191,191,191,191,191,191,191,191,191,191,30133,54915,49940,191,44248,16117,191,191,
55,191,191,191,191,191,191,191,191,191,191,191,191,191,191,191,191,191,191,191,191,35693,191,191,191,191,191,191,191,191,191,191,191,191,191,191,191,191,191,191,191,191,191,191,191,191,191,191,191,191,191,191,191,191,191,191,191,191,191,191,191,191,191,191,191,191,191,191,191,191,191,191,191,191,191,22749,191,191,191,191,191,
56,191,191,191,191,191,191,191,191,191,191,191,191,191,191,191,191,191,191,191,191,191,191,191,191,191,191,191,191,191,191,191,191,191,191,191,191,191,191,191,191,191,191,191,191,191,191,191,191,191,191,191,191,191,191,191,191,191,191,191,191,191,191,191,191,191,191,191,191,191,191,191,191,191,191,191,1297,4147,191,22602,39239,
57,191,191,191,191,191,191,191,191,191,191,191,191,191,191,191,191,191,191,191,191,191,191,191,191,191,191,191,191,191,191,191,191,191,191,191,191,10724,191,191,191,191,191,191,191,191,191,191,191,191,191,191,191,191,191,191,191,191,191,191,191,191,191,191,191,191,191,191,191,191,191,191,191,48984,191,47020,11217,37215,43114,191,3286,
58,191,191,191,191,191,191,191,191,191,191,191,191,191,191,191,191,191,191,191,191,191,191,191,191,191,191,191,191,191,191,191,191,191,191,191,4104,191,191,191,191,191,191,191,191,191,191,191,191,191,191,191,191,191,4104,191,12992,191,191,191,191,191,191,191,191,191,191,191,191,191,191,191,191,191,191,12080,43513,15715,31951,33575,191,
59,191,191,191,191,191,191,191,191,191,191,1039,191,191,191,191,191,191,191,191,191,191,191,191,191,191,191,191,191,191,191,191,191,191,191,191,191,191,191,191,191,191,191,191,191,191,191,191,191,191,191,191,191,191,191,191,191,191,191,191,191,191,191,191,191,191,191,191,191,191,191,191,191,17173,24301,191,48947,1799,21811,191,191,
60,191,191,191,191,191,191,191,191,191,191,191,191,191,191,191,191,191,191,191,191,191,191,191,191,191,191,191,191,191,191,191,191,191,191,191,191,191,191,191,191,191,191,191,191,191,191,191,191,191,191,191,191,191,191,191,191,191,191,191,191,191,191,191,191,191,191,191,191,191,191,191,191,191,51910,191,38209,35291,23858,191,191,
61,191,191,191,191,191,191,191,191,191,191,191,191,191,191,191,191,191,191,191,191,191,191,191,191,191,191,191,191,191,191,191,191,191,191,191,191,191,191,191,191,191,191,191,191,191,191,191,191,191,191,191,191,191,191,191,191,191,191,191,191,191,191,191,191,191,191,191,191,191,191,191,191,12288,191,191,33018,191,20299,40878,21362,
62,191,191,191,191,191,191,191,191,191,191,191,191,191,191,191,191,191,191,191,191,191,191,191,191,191,191,191,191,191,191,191,191,191,191,191,191,191,191,191,191,191,191,191,191,191,191,191,191,191,191,191,191,191,191,191,191,191,191,191,191,191,191,191,191,191,191,191,191,191,191,191,191,191,55872,38914,24630,191,191,37388,191,
63,191,191,191,191,191,191,191,191,191,191,191,191,191,191,191,191,191,191,191,191,191,191,191,191,191,191,191,191,191,191,191,191,191,191,191,191,191,191,191,191,191,191,191,191,191,191,191,191,191,191,191,191,191,191,191,191,191,191,191,191,191,191,191,33214,191,191,191,191,191,191,191,191,53448,191,54829,191,191,27591,24687,23809,
64,191,191,191,191,191,191,191,191,191,191,191,191,191,191,191,191,191,191,191,191,191,191,191,191,191,191,191,191,191,191,191,191,191,191,191,191,191,191,191,191,191,191,191,191,191,191,191,191,191,191,191,191,191,191,191,191,191,191,191,191,191,191,191,191,191,191,191,191,191,191,191,191,22278,49199,191,19607,191,191,39461,191,
65,191,191,191,191,191,191,191,191,191,191,191,191,191,191,191,191,191,191,191,191,191,191,191,191,191,191,191,191,191,191,191,191,191,191,191,191,191,191,191,191,191,191,191,191,191,191,191,191,191,191,191,191,191,191,191,191,191,191,191,191,191,191,191,191,191,191,191,191,191,191,191,191,25096,21323,191,30214,191,20522,7624,33425,
66,191,191,191,191,191,191,191,191,191,191,191,6903,191,191,191,191,191,191,191,191,191,191,191,191,191,191,191,191,191,191,191,6903,191,191,191,191,191,191,191,191,191,191,191,191,191,191,191,191,191,191,191,191,191,191,191,191,191,191,191,191,191,191,191,191,191,191,191,7624,191,191,191,191,34288,41155,191,191,40008,44896,28624,54910,
67,191,191,191,191,191,191,191,191,191,191,191,16307,191,191,191,191,191,191,191,191,191,191,191,191,191,191,191,191,191,191,191,191,191,191,191,191,191,191,191,191,191,191,191,191,191,191,191,191,191,191,191,191,191,191,191,191,191,191,191,191,191,191,191,191,191,191,6903,191,191,191,191,191,16060,191,191,36869,191,47822,191,38548,
68,191,191,191,191,191,191,191,191,191,191,191,191,191,191,191,191,191,20606,191,191,191,191,191,191,191,191,191,191,191,191,191,191,191,191,191,191,191,191,191,191,191,191,191,191,191,191,191,191,191,191,191,191,191,191,191,191,191,191,191,191,191,191,191,191,191,191,191,191,191,191,191,191,55202,6009,6933,3926,43873,20591,191,191,
69,191,191,191,191,191,191,191,191,191,191,191,191,191,191,191,191,191,191,191,191,191,191,191,4951,191,191,191,191,191,4951,191,4951,191,191,191,4951,191,191,191,191,191,191,191,191,191,191,191,1693,191,191,191,191,191,191,191,191,191,191,191,191,191,191,4951,191,191,191,191,191,191,191,191,191,191,34983,191,34327,23895,191,191,191,
70,191,191,191,191,191,191,191,191,191,191,191,191,191,191,191,191,191,191,191,191,191,191,191,191,191,191,191,191,191,191,191,191,191,191,191,191,191,191,191,191,191,191,191,191,191,191,191,191,191,191,191,191,191,191,191,191,191,191,191,191,191,191,191,191,191,35281,21367,191,191,191,191,191,191,45613,6856,25286,34482,57238,47390,58181,
71,191,191,191,191,191,191,191,191,191,191,191,191,191,191,191,191,191,191,191,191,191,191,191,191,191,191,191,191,191,191,191,191,191,191,191,191,191,191,191,191,191,191,191,191,191,191,191,191,191,191,191,191,191,191,191,191,191,191,191,191,191,191,191,191,191,191,191,191,191,191,191,191,41938,43534,191,14886,191,32024,58819,24725,
72,191,191,191,191,191,191,191,191,191,191,191,191,191,191,191,191,191,191,191,191,191,191,191,191,191,191,191,191,191,191,191,191,191,191,191,191,191,191,191,191,191,191,191,191,191,191,191,191,191,191,191,191,191,191,191,191,191,191,191,191,191,191,191,191,191,191,191,191,191,191,191,191,55079,191,191,191,27648,191,191,191,
73,191,191,191,191,191,191,191,191,191,191,191,191,191,191,191,191,4597,191,191,191,191,191,191,191,191,191,191,191,191,191,191,191,191,191,191,191,191,191,191,191,191,191,191,191,191,191,191,191,191,191,191,191,191,191,191,191,191,38001,191,191,191,191,18465,191,191,191,191,191,191,191,191,191,40182,54818,191,191,25060,191,51865,32747,
74,191,191,191,191,191,191,191,191,191,191,191,191,26211,191,191,191,191,191,191,191,191,191,191,191,191,191,191,191,191,191,191,191,191,191,191,191,191,191,191,21521,191,191,18020,191,191,191,191,191,191,191,191,8723,191,191,191,191,191,191,191,191,191,191,191,191,191,191,191,191,191,191,191,191,48745,51680,191,53034,23981,191,191,30208,
75,191,191,191,191,191,191,191,191,191,191,191,191,191,191,191,191,191,191,191,191,191,923,191,191,191,191,191,191,191,191,191,191,191,191,191,191,191,191,191,191,191,191,191,191,191,191,191,191,191,191,191,191,191,191,191,191,191,191,191,191,191,191,191,191,191,191,191,191,191,191,191,191,191,58558,191,52894,24390,8814,191,46618,
76,191,191,191,191,191,191,191,191,191,24030,191,191,191,191,191,191,191,191,191,191,191,191,191,191,191,191,191,191,191,191,191,191,191,191,191,191,191,191,191,191,191,191,191,191,191,191,191,191,191,191,191,191,191,191,191,191,191,191,191,191,191,191,191,191,191,191,191,191,191,191,191,191,14330,13884,48799,26367,54986,42971,29333,191,
77,191,191,191,191,191,191,191,191,191,191,191,191,191,191,191,191,191,191,191,191,191,191,191,191,191,191,191,191,191,191,191,191,191,191,191,191,191,191,191,10858,191,191,191,191,8234,191,191,191,191,4887,191,191,191,191,191,4887,191,191,191,191,191,191,191,191,191,191,191,191,191,191,191,191,42204,1183,33257,21643,8724,191,58582,20986,
78,191,191,191,191,191,191,191,191,191,191,191,191,191,191,191,191,191,191,191,191,191,191,191,191,191,191,191,191,191,191,191,191,191,191,6335,191,191,191,191,191,191,191,191,191,191,191,191,191,191,191,191,191,191,191,191,191,191,191,191,191,191,191,191,191,191,191,191,191,191,191,191,191,55786,12994,29830,191,28834,47039,44095,191,
79,191,191,191,191,191,191,191,191,191,191,191,191,191,191,191,191,191,191,191,191,191,191,191,191,191,191,191,191,191,191,191,191,191,191,191,191,191,191,191,191,191,191,191,191,191,191,191,191,191,191,14132,191,191,191,191,191,191,191,191,191,191,191,191,191,191,191,191,191,191,191,191,191,57137,31620,31382,5380,35356,191,33741,46248,
80,191,191,191,191,191,191,191,191,191,191,191,191,191,191,191,191,191,191,191,191,191,191,191,191,191,191,191,191,191,191,191,191,191,191,191,191,191,191,191,191,191,191,191,191,191,20390,191,191,191,191,191,191,191,191,191,191,191,191,191,191,191,191,191,191,191,191,191,191,191,191,191,191,24781,23364,11308,40406,27099,191,14884,10339,
81,191,191,191,191,191,191,191,191,191,191,191,191,191,191,191,191,191,191,191,191,191,191,191,191,7111,191,191,191,191,191,191,191,191,191,191,9796,191,191,191,191,191,191,191,191,191,11239,191,191,191,191,191,191,191,191,191,191,191,191,191,191,191,191,191,191,191,191,191,191,191,191,191,191,4662,191,4052,19017,191,191,191,21723,
82,191,191,191,191,191,191,191,191,191,191,191,191,191,191,191,191,191,191,191,191,191,191,191,191,191,191,191,191,191,191,191,191,191,670,191,191,191,191,191,191,191,191,191,191,191,191,191,191,191,191,191,191,191,191,191,191,191,32766,191,191,191,191,191,191,191,191,191,191,191,191,191,191,191,16586,191,45398,191,191,39151,39758,
83,191,191,191,191,191,191,191,191,191,191,191,191,191,191,191,191,191,191,191,12454,191,191,191,191,191,191,191,12454,191,191,191,191,191,191,13864,191,191,191,191,191,191,191,191,191,191,191,191,191,191,191,191,191,191,191,191,191,12454,191,13970,191,191,191,191,191,191,191,191,191,1969,191,191,191,191,20205,191,191,15273,191,27441,191,
84,191,191,191,191,191,191,191,191,191,191,191,191,191,191,191,191,191,191,191,191,191,191,191,191,191,191,191,191,191,191,191,191,27557,191,191,191,191,191,191,191,191,191,191,191,191,191,191,191,191,191,191,191,191,191,191,191,191,191,191,191,191,191,191,191,191,191,191,191,191,191,191,191,191,25746,191,10901,47966,11067,15257,191,
85,191,191,191,191,191,191,191,191,191,191,191,191,191,191,191,191,191,191,191,191,191,191,28487,191,191,191,191,191,191,191,191,191,191,191,191,191,191,191,191,191,191,191,191,191,191,191,191,191,191,191,191,191,191,191,191,191,191,191,191,191,191,191,191,191,191,191,191,191,191,191,191,191,56791,41409,191,18677,23090,31650,15842,44134,
86,191,191,191,191,191,191,191,191,191,191,191,191,519,191,191,191,191,191,191,191,191,191,191,191,191,191,191,191,191,191,191,191,191,5653,191,191,191,16999,191,191,191,191,191,191,191,191,191,191,191,191,191,191,191,191,191,191,191,191,191,191,191,191,191,191,191,191,191,191,191,191,191,191,30122,32490,191,55227,191,21517,191,43847,
87,191,191,191,191,191,191,191,191,191,191,191,191,191,11593,191,191,191,191,191,191,191,191,191,191,191,191,191,191,191,191,191,17515,191,191,191,191,191,191,191,191,191,191,191,191,191,191,191,191,191,191,191,191,191,191,191,191,191,191,191,191,191,191,191,191,191,191,191,191,191,191,12335,191,191,48958,11877,46442,6933,47871,38538,55862,
88,191,191,191,191,191,191,191,191,191,191,191,191,191,191,191,191,191,191,191,11922,191,191,191,191,191,191,191,191,191,191,191,191,191,191,191,191,191,191,191,191,191,191,191,191,12168,191,191,191,191,191,191,191,191,191,191,191,191,191,191,191,191,191,191,191,40279,191,191,191,191,191,191,191,29963,38341,48295,7353,191,12582,58807,56603,
89,191,191,191,191,191,191,191,191,191,191,191,21676,191,191,21676,191,191,191,191,191,191,191,191,191,191,191,191,191,37339,191,191,191,191,191,191,21676,191,191,191,191,191,191,191,191,191,191,191,191,191,191,21676,191,191,191,191,191,973,191,191,191,191,191,191,191,191,191,191,191,191,191,191,191,50127,31932,3351,58173,191,191,31171,11978,
90,191,191,191,191,191,191,191,191,191,191,191,191,191,191,191,191,191,191,191,191,191,191,191,191,191,191,191,191,191,191,191,191,191,191,191,191,191,191,191,191,191,191,191,191,191,191,191,191,191,191,191,191,191,191,191,191,191,191,191,191,191,191,191,191,191,191,191,191,191,191,191,191,11474,27930,28465,191,40964,40942,19707,22640,
91,191,191,191,191,191,191,191,191,191,191,191,191,191,191,191,191,191,191,191,191,191,191,191,191,191,191,191,191,191,191,191,191,191,191,191,191,191,191,191,191,191,191,191,191,191,191,191,191,191,191,191,191,16061,191,191,191,191,191,191,191,191,191,191,191,191,191,191,191,191,191,191,191,32031,38477,30765,191,28848,15108,191,43954,
92,191,191,191,191,191,191,191,191,191,191,191,191,191,17911,191,191,191,191,17911,191,191,191,191,191,191,191,191,191,17911,191,191,191,191,191,191,191,191,191,191,191,191,191,191,191,191,191,191,191,191,191,191,191,191,20745,191,191,191,191,191,191,191,191,191,191,191,191,191,191,191,191,191,191,2539,9981,12812,191,40036,191,29266,33201,
93,191,191,191,191,191,191,191,191,191,191,5436,191,191,191,191,191,191,191,191,191,191,191,191,191,191,191,191,191,191,191,191,191,191,191,191,191,191,191,191,191,191,191,191,191,191,191,191,191,191,191,191,191,191,191,191,191,191,11306,191,191,191,191,191,191,191,191,191,191,191,191,191,191,14395,191,191,33319,16879,49375,48128,39574,
94,191,191,191,191,191,191,191,191,191,191,191,191,191,191,191,191,191,191,191,48128,191,191,191,191,191,191,191,191,191,191,191,191,191,191,191,191,191,191,191,191,191,191,191,191,191,191,191,191,191,191,191,191,191,191,191,191,191,191,191,191,191,191,191,191,191,191,191,191,191,191,191,191,191,49240,35284,41025,3669,1900,40215,34204,
95,191,191,191,191,191,191,191,191,191,191,191,191,191,191,191,191,191,191,191,191,191,191,191,191,191,191,191,191,191,191,191,191,191,191,191,191,191,191,191,191,191,191,191,191,191,191,191,191,191,191,191,191,191,191,191,191,191,191,191,191,191,191,191,191,191,191,191,191,191,191,191,191,5502,191,1485,191,191,12660,18944,11611,
96,191,191,191,191,191,191,191,191,191,191,191,191,191,191,191,191,191,191,191,191,191,191,191,1920,191,191,191,191,191,191,191,191,191,191,191,191,191,191,191,191,191,191,191,191,191,191,191,191,191,191,191,191,191,191,191,191,191,191,191,191,191,191,191,191,191,191,191,191,191,191,191,191,8139,16011,191,191,191,191,191,45707,
97,191,191,191,191,191,191,191,191,191,191,191,191,191,191,191,191,191,191,191,191,191,191,191,191,191,191,191,191,191,191,191,191,191,191,191,191,191,191,191,191,191,191,191,191,191,191,191,191,191,191,191,191,191,191,191,191,191,191,191,191,191,191,191,191,191,191,191,191,191,191,191,191,33179,191,42075,25344,18050,191,11340,191,
98,191,191,191,191,191,191,191,191,191,191,191,191,191,191,191,191,4823,191,191,191,191,191,191,191,191,191,191,191,191,191,191,191,191,191,191,191,191,29704,191,191,191,191,191,191,191,191,191,4823,191,191,191,191,191,191,35679,191,191,191,191,191,191,191,191,191,191,191,191,191,191,191,191,191,48263,191,19599,191,10061,191,6738,42542,
99,191,191,191,191,191,191,191,191,191,191,191,191,191,191,191,191,191,191,191,191,191,43511,191,191,191,191,191,191,191,191,191,191,191,191,191,191,191,191,191,191,191,191,191,21039,191,191,191,191,191,191,191,191,191,191,191,191,191,191,191,191,191,191,191,191,191,191,191,191,191,191,191,191,9036,48894,40232,48723,1889,191,191,14543,
100,191,191,191,191,191,191,191,191,191,191,191,191,191,191,191,191,191,191,191,191,191,191,191,191,191,191,191,191,191,191,191,191,191,191,191,191,191,191,191,191,191,191,191,191,191,191,191,191,191,191,191,191,191,191,191,191,191,191,191,191,191,191,191,191,191,191,191,191,191,191,191,191,35548,191,191,191,31043,25342,8635,191,
